Problem:    
Rows:       256
Columns:    89 (72 integer, 72 binary)
Non-zeros:  960
Status:     INTEGER OPTIMAL
Objective:  value = 145.876866 (MINimum)

   No.   Row name        Activity     Lower bound   Upper bound
------ ------------    ------------- ------------- -------------
     1 r.5                   145.877             0               
     2 r.6                   79.2553      -979.245               
     3 r.7                   1145.88             0               
     4 r.8                  -920.745      -962.469               
     5 r.9                   1145.88             0               
     6 r.10                 -906.335      -976.369               
     7 r.11                  145.877             0               
     8 r.12                  93.6649      -959.819               
     9 r.13                  1145.88             0               
    10 r.14                 -929.966       -966.72               
    11 r.15                  145.877             0               
    12 r.16                  93.6649       -937.18               
    13 r.17                  1145.88             0               
    14 r.18                 -963.246      -980.619               
    15 r.19                  145.877             0               
    16 r.20                 -956.219       -964.08               
    17 r.21                  145.877             0               
    18 r.22                   82.048      -982.683               
    19 r.23                  1145.88             0               
    20 r.24                 -960.743      -968.604               
    21 r.25                  1145.88             0               
    22 r.26                 -997.725      -997.725               
    23 r.27                  145.877             0               
    24 r.28                  12.7956      -967.656               
    25 r.29                  145.877             0               
    26 r.30                  145.877      -947.767               
    27 r.31                  1145.88             0               
    28 r.32                 -854.123      -933.378               
    29 r.33                  1145.88             0               
    30 r.34                 -854.123      -947.788               
    31 r.35                  145.877             0               
    32 r.36                  145.877      -933.749               
    33 r.37                        1             1             = 
    34 r.38                        1             1             = 
    35 r.39                        1             1             = 
    36 r.40                        1             1             = 
    37 r.41                        1             1             = 
    38 r.42                        1             1             = 
    39 r.43                        1             1             = 
    40 r.44                        1             1             = 
    41 r.45                     1001             2               
    42 r.46                    -1001         -1001               
    43 r.47                  2014.41      -976.369               
    44 r.48                     1001             2               
    45 r.49                    -1001         -1001               
    46 r.50                  2014.41      -959.819               
    47 r.51                     1001             2               
    48 r.52                    -1001         -1001               
    49 r.53                  1990.78       -966.72               
    50 r.54                     1001             2               
    51 r.55                    -1001         -1001               
    52 r.56                  2014.41       -937.18               
    53 r.57                     1001             2               
    54 r.58                    -1001         -1001               
    55 r.59                   1957.5      -980.619               
    56 r.60                     1001             2               
    57 r.61                    -1001         -1001               
    58 r.62                  964.526       -964.08               
    59 r.63                     1000             2               
    60 r.64                    -1000         -1001               
    61 r.65                  2002.79      -982.683               
    62 r.66                        2             2               
    63 r.67                       -2         -1001               
    64 r.68                 -39.9987      -968.604               
    65 r.69                  71.3943      -979.245               
    66 r.70                 -928.606      -962.469               
    67 r.71                  71.3943      -979.245               
    68 r.72                 -928.606      -962.469               
    69 r.73                  66.6216      -947.767               
    70 r.74                 -933.378      -933.378               
    71 r.75                  66.6216      -947.767               
    72 r.76                 -933.378      -933.378               
    73 r.77                     1001             2               
    74 r.78                    -1001         -1001               
    75 r.79                  2066.62      -947.788               
    76 r.80                     1001             2               
    77 r.81                    -1001         -1001               
    78 r.82                  2066.62      -933.749               
    79 r.83                     1001             2               
    80 r.84                    -1001         -1001               
    81 r.85                  1985.59       20.7548               
    82 r.86                     1001             2               
    83 r.87                    -1001         -1001               
    84 r.88                  1985.59       37.5314               
    85 r.89                        2             2               
    86 r.90                       -2         -1001               
    87 r.91                 -23.6306       -966.72               
    88 r.92                     1000             2               
    89 r.93                    -1000         -1001               
    90 r.94                     2000       -937.18               
    91 r.95                        2             2               
    92 r.96                       -2         -1001               
    93 r.97                 -56.9106      -980.619               
    94 r.98                     1000             2               
    95 r.99                    -1000         -1001               
    96 r.100                 950.116       -964.08               
    97 r.101                    1001             2               
    98 r.102                   -1001         -1001               
    99 r.103                 1988.38      -982.683               
   100 r.104                    1001             2               
   101 r.105                   -1001         -1001               
   102 r.106                 1945.59      -968.604               
   103 r.107                -914.196      -976.369               
   104 r.108                 85.8039      -959.819               
   105 r.109                -914.196      -976.369               
   106 r.110                 85.8039      -959.819               
   107 r.111                    1001             2               
   108 r.112                   -1001         -1001               
   109 r.113                 2052.21      -947.767               
   110 r.114                    1001             2               
   111 r.115                   -1001         -1001               
   112 r.116                 2052.21      -933.378               
   113 r.117                -947.788      -947.788               
   114 r.118                  52.212      -933.749               
   115 r.119                -947.788      -947.788               
   116 r.120                  52.212      -933.749               
   117 r.121                    1001             2               
   118 r.122                   -1001         -1001               
   119 r.123                 2009.22       20.7548               
   120 r.124                    1001             2               
   121 r.125                   -1001         -1001               
   122 r.126                 1985.59       37.5314               
   123 r.127                       2             2               
   124 r.128                      -2         -1001               
   125 r.129                 23.6306       23.6306               
   126 r.130                    1000             2               
   127 r.131                   -1000         -1001               
   128 r.132                    2000       40.1808               
   129 r.133                 -966.72       -966.72               
   130 r.134                 56.9106       -937.18               
   131 r.135                 26.2531       -966.72               
   132 r.136                 1049.88       -937.18               
   133 r.137                    1001             2               
   134 r.138                   -1001         -1001               
   135 r.139                 2012.01      -982.683               
   136 r.140                    1001             2               
   137 r.141                   -1001         -1001               
   138 r.142                 1945.59      -968.604               
   139 r.143                -937.827       -966.72               
   140 r.144                 85.8039       -937.18               
   141 r.145                -937.827       -966.72               
   142 r.146                 85.8039       -937.18               
   143 r.147                    1001             2               
   144 r.148                   -1001         -1001               
   145 r.149                 2075.84      -947.767               
   146 r.150                    1001             2               
   147 r.151                   -1001         -1001               
   148 r.152                 2052.21      -933.378               
   149 r.153                -924.157      -947.788               
   150 r.154                 75.8426      -933.749               
   151 r.155                -947.788      -947.788               
   152 r.156                  52.212      -933.749               
   153 r.157                    1001             2               
   154 r.158                   -1001         -1001               
   155 r.159                  2042.5       20.7548               
   156 r.160                    1001             2               
   157 r.161                   -1001         -1001               
   158 r.162                 3035.47       37.5314               
   159 r.163                       2             2               
   160 r.164                      -2         -1001               
   161 r.165                 56.9106       23.6306               
   162 r.166                    1000             2               
   163 r.167                   -1000         -1001               
   164 r.168                 3049.88       40.1808               
   165 r.169                    1001             2               
   166 r.170                   -1001         -1001               
   167 r.171                 2045.29      -982.683               
   168 r.172                    1001             2               
   169 r.173                   -1001         -1001               
   170 r.174                 2995.48      -968.604               
   171 r.175                -971.107      -980.619               
   172 r.176                 -964.08       -964.08               
   173 r.177                -971.107      -980.619               
   174 r.178                 -964.08       -964.08               
   175 r.179                    1001             2               
   176 r.180                   -1001         -1001               
   177 r.181                 2109.12      -947.767               
   178 r.182                    1001             2               
   179 r.183                   -1001         -1001               
   180 r.184                  3102.1      -933.378               
   181 r.185                -890.877      -947.788               
   182 r.186                 109.123      -933.749               
   183 r.187                 102.096      -947.788               
   184 r.188                  1102.1      -933.749               
   185 r.189                    1000             2               
   186 r.190                   -1000         -1001               
   187 r.191                    2000       20.7548               
   188 r.192                       2             2               
   189 r.193                      -2         -1001               
   190 r.194                 37.5314       37.5314               
   191 r.195                    1001             2               
   192 r.196                   -1001         -1001               
   193 r.197                 2014.41       23.6306               
   194 r.198                    1001             2               
   195 r.199                   -1001         -1001               
   196 r.200                 2051.94       40.1808               
   197 r.201                    1001             2               
   198 r.202                   -1001         -1001               
   199 r.203                 1990.78         33.28               
   200 r.204                    1001             2               
   201 r.205                   -1001         -1001               
   202 r.206                 2051.94       62.8198               
   203 r.207                    1001             2               
   204 r.208                   -1001         -1001               
   205 r.209                  1957.5       19.3806               
   206 r.210                    1001             2               
   207 r.211                   -1001         -1001               
   208 r.212                 1002.06       35.9203               
   209 r.213                 74.1871      -982.683               
   210 r.214                -968.604      -968.604               
   211 r.215                 74.1871      -982.683               
   212 r.216                -968.604      -968.604               
   213 r.217                 66.6216      -947.767               
   214 r.218                -933.378      -933.378               
   215 r.219                 104.153      -947.767               
   216 r.220                -895.847      -933.378               
   217 r.221                -933.378      -947.788               
   218 r.222                 66.6216      -933.749               
   219 r.223                -895.847      -947.788               
   220 r.224                 104.153      -933.749               
   221 r.225                    1001             2               
   222 r.226                   -1001         -1001               
   223 r.227                 1947.79       23.6306               
   224 r.228                    1001             2               
   225 r.229                   -1001         -1001               
   226 r.230                 1947.79       40.1808               
   227 r.231                    1001             2               
   228 r.232                   -1001         -1001               
   229 r.233                 1924.16         33.28               
   230 r.234                    1001             2               
   231 r.235                   -1001         -1001               
   232 r.236                 1947.79       62.8198               
   233 r.237                    1001             2               
   234 r.238                   -1001         -1001               
   235 r.239                 1890.88       19.3806               
   236 r.240                    1001             2               
   237 r.241                   -1001         -1001               
   238 r.242                 897.904       35.9203               
   239 r.243                    1001             2               
   240 r.244                   -1001         -1001               
   241 r.245                    2000      -947.788               
   242 r.246                    1001             2               
   243 r.247                   -1001         -1001               
   244 r.248                    2000      -933.749               
   245 r.249                    1001             2               
   246 r.250                   -1001         -1001               
   247 r.251                 1933.38       20.7548               
   248 r.252                    1001             2               
   249 r.253                   -1001         -1001               
   250 r.254                 1933.38       37.5314               
   251 r.255                    1001             2               
   252 r.256                   -1001         -1001               
   253 r.257                    2000       52.2332               
   254 r.258                    1001             2               
   255 r.259                   -1001         -1001               
   256 r.260                    2000       66.6216               

   No. Column name       Activity     Lower bound   Upper bound
------ ------------    ------------- ------------- -------------
     1 tt                    145.877             0               
     2 s_1_1        *              0             0             1 
     3 t_1_1                 66.6216             0               
     4 s_1_7        *              0             0             1 
     5 s_2_1        *              1             0             1 
     6 t_2_1                 66.6216             0               
     7 s_2_7        *              1             0             1 
     8 s_1_2        *              1             0             1 
     9 t_1_2                  52.212             0               
    10 s_1_8        *              1             0             1 
    11 s_2_2        *              0             0             1 
    12 t_2_2                  52.212             0               
    13 s_2_8        *              0             0             1 
    14 s_1_3        *              1             0             1 
    15 t_1_3                 75.8426             0               
    16 s_2_3        *              0             0             1 
    17 t_2_3                  52.212             0               
    18 s_1_4        *              1             0             1 
    19 t_1_4                 109.123             0               
    20 s_2_4        *              0             0             1 
    21 t_2_4                  1102.1             0               
    22 s_1_5        *              0             0             1 
    23 t_1_5                 66.6216             0               
    24 s_2_5        *              1             0             1 
    25 t_2_5                 104.153             0               
    26 s_1_6        *              1             0             1 
    27 t_1_6                 138.016             0               
    28 s_2_6        *              0             0             1 
    29 t_2_6                 138.016             0               
    30 t_1_7                       0             0               
    31 t_2_7                       0             0               
    32 t_1_8                       0             0               
    33 t_2_8                       0             0               
    34 r_1_1_2      *              1             0             1 
    35 u_1_1_2      *              0             0             1 
    36 r_2_1_2      *              1             0             1 
    37 u_2_1_2      *              0             0             1 
    38 r_1_1_3      *              1             0             1 
    39 u_1_1_3      *              0             0             1 
    40 r_2_1_3      *              1             0             1 
    41 u_2_1_3      *              0             0             1 
    42 r_1_1_4      *              1             0             1 
    43 u_1_1_4      *              0             0             1 
    44 r_2_1_4      *              1             0             1 
    45 u_2_1_4      *              0             0             1 
    46 r_1_1_5      *              1             0             1 
    47 u_1_1_5      *              0             0             1 
    48 r_2_1_5      *              0             0             1 
    49 u_2_1_5      *              0             0             1 
    50 r_1_1_8      *              1             0             1 
    51 u_1_1_8      *              0             0             1 
    52 r_2_1_8      *              1             0             1 
    53 u_2_1_8      *              0             0             1 
    54 r_1_2_3      *              0             0             1 
    55 u_1_2_3      *              0             0             1 
    56 r_2_2_3      *              1             0             1 
    57 u_2_2_3      *              0             0             1 
    58 r_1_2_4      *              0             0             1 
    59 u_1_2_4      *              0             0             1 
    60 r_2_2_4      *              1             0             1 
    61 u_2_2_4      *              0             0             1 
    62 r_1_2_5      *              1             0             1 
    63 u_1_2_5      *              0             0             1 
    64 r_2_2_5      *              1             0             1 
    65 u_2_2_5      *              0             0             1 
    66 r_1_2_7      *              1             0             1 
    67 u_1_2_7      *              0             0             1 
    68 r_2_2_7      *              1             0             1 
    69 u_2_2_7      *              0             0             1 
    70 r_1_3_5      *              1             0             1 
    71 u_1_3_5      *              0             0             1 
    72 r_2_3_5      *              1             0             1 
    73 u_2_3_5      *              0             0             1 
    74 r_1_3_7      *              1             0             1 
    75 u_1_3_7      *              0             0             1 
    76 r_2_3_7      *              1             0             1 
    77 u_2_3_7      *              0             0             1 
    78 r_1_4_5      *              1             0             1 
    79 u_1_4_5      *              0             0             1 
    80 r_2_4_5      *              1             0             1 
    81 u_2_4_5      *              0             0             1 
    82 r_1_4_7      *              1             0             1 
    83 u_1_4_7      *              0             0             1 
    84 r_2_4_7      *              1             0             1 
    85 u_2_4_7      *              0             0             1 
    86 r_1_7_8      *              1             0             1 
    87 u_1_7_8      *              0             0             1 
    88 r_2_7_8      *              1             0             1 
    89 u_2_7_8      *              0             0             1 

Integer feasibility conditions:

KKT.PE: max.abs.err = 4.55e-13 on row 164
        max.rel.err = 9.86e-17 on row 22
        High quality

KKT.PB: max.abs.err = 2.27e-13 on row 22
        max.rel.err = 2.88e-15 on row 125
        High quality

End of output
